p cnf 950 1600
99 100 1 151 152 0
99 100 1 151 -152 0
99 100 1 -151 152 0
99 100 1 -151 -152 0
-99 -100 1 153 154 0
-99 -100 1 153 -154 0
-99 -100 1 -153 154 0
-99 -100 1 -153 -154 0
99 -100 -1 155 156 0
99 -100 -1 155 -156 0
99 -100 -1 -155 156 0
99 -100 -1 -155 -156 0
-99 100 -1 157 158 0
-99 100 -1 157 -158 0
-99 100 -1 -157 158 0
-99 100 -1 -157 -158 0
1 101 2 159 160 0
1 101 2 159 -160 0
1 101 2 -159 160 0
1 101 2 -159 -160 0
-1 -101 2 161 162 0
-1 -101 2 161 -162 0
-1 -101 2 -161 162 0
-1 -101 2 -161 -162 0
1 -101 -2 163 164 0
1 -101 -2 163 -164 0
1 -101 -2 -163 164 0
1 -101 -2 -163 -164 0
-1 101 -2 165 166 0
-1 101 -2 165 -166 0
-1 101 -2 -165 166 0
-1 101 -2 -165 -166 0
2 102 3 167 168 0
2 102 3 167 -168 0
2 102 3 -167 168 0
2 102 3 -167 -168 0
-2 -102 3 169 170 0
-2 -102 3 169 -170 0
-2 -102 3 -169 170 0
-2 -102 3 -169 -170 0
2 -102 -3 171 172 0
2 -102 -3 171 -172 0
2 -102 -3 -171 172 0
2 -102 -3 -171 -172 0
-2 102 -3 173 174 0
-2 102 -3 173 -174 0
-2 102 -3 -173 174 0
-2 102 -3 -173 -174 0
3 103 4 175 176 0
3 103 4 175 -176 0
3 103 4 -175 176 0
3 103 4 -175 -176 0
-3 -103 4 177 178 0
-3 -103 4 177 -178 0
-3 -103 4 -177 178 0
-3 -103 4 -177 -178 0
3 -103 -4 179 180 0
3 -103 -4 179 -180 0
3 -103 -4 -179 180 0
3 -103 -4 -179 -180 0
-3 103 -4 181 182 0
-3 103 -4 181 -182 0
-3 103 -4 -181 182 0
-3 103 -4 -181 -182 0
4 104 5 183 184 0
4 104 5 183 -184 0
4 104 5 -183 184 0
4 104 5 -183 -184 0
-4 -104 5 185 186 0
-4 -104 5 185 -186 0
-4 -104 5 -185 186 0
-4 -104 5 -185 -186 0
4 -104 -5 187 188 0
4 -104 -5 187 -188 0
4 -104 -5 -187 188 0
4 -104 -5 -187 -188 0
-4 104 -5 189 190 0
-4 104 -5 189 -190 0
-4 104 -5 -189 190 0
-4 104 -5 -189 -190 0
5 105 6 191 192 0
5 105 6 191 -192 0
5 105 6 -191 192 0
5 105 6 -191 -192 0
-5 -105 6 193 194 0
-5 -105 6 193 -194 0
-5 -105 6 -193 194 0
-5 -105 6 -193 -194 0
5 -105 -6 195 196 0
5 -105 -6 195 -196 0
5 -105 -6 -195 196 0
5 -105 -6 -195 -196 0
-5 105 -6 197 198 0
-5 105 -6 197 -198 0
-5 105 -6 -197 198 0
-5 105 -6 -197 -198 0
6 106 7 199 200 0
6 106 7 199 -200 0
6 106 7 -199 200 0
6 106 7 -199 -200 0
-6 -106 7 201 202 0
-6 -106 7 201 -202 0
-6 -106 7 -201 202 0
-6 -106 7 -201 -202 0
6 -106 -7 203 204 0
6 -106 -7 203 -204 0
6 -106 -7 -203 204 0
6 -106 -7 -203 -204 0
-6 106 -7 205 206 0
-6 106 -7 205 -206 0
-6 106 -7 -205 206 0
-6 106 -7 -205 -206 0
7 107 8 207 208 0
7 107 8 207 -208 0
7 107 8 -207 208 0
7 107 8 -207 -208 0
-7 -107 8 209 210 0
-7 -107 8 209 -210 0
-7 -107 8 -209 210 0
-7 -107 8 -209 -210 0
7 -107 -8 211 212 0
7 -107 -8 211 -212 0
7 -107 -8 -211 212 0
7 -107 -8 -211 -212 0
-7 107 -8 213 214 0
-7 107 -8 213 -214 0
-7 107 -8 -213 214 0
-7 107 -8 -213 -214 0
8 108 9 215 216 0
8 108 9 215 -216 0
8 108 9 -215 216 0
8 108 9 -215 -216 0
-8 -108 9 217 218 0
-8 -108 9 217 -218 0
-8 -108 9 -217 218 0
-8 -108 9 -217 -218 0
8 -108 -9 219 220 0
8 -108 -9 219 -220 0
8 -108 -9 -219 220 0
8 -108 -9 -219 -220 0
-8 108 -9 221 222 0
-8 108 -9 221 -222 0
-8 108 -9 -221 222 0
-8 108 -9 -221 -222 0
9 109 10 223 224 0
9 109 10 223 -224 0
9 109 10 -223 224 0
9 109 10 -223 -224 0
-9 -109 10 225 226 0
-9 -109 10 225 -226 0
-9 -109 10 -225 226 0
-9 -109 10 -225 -226 0
9 -109 -10 227 228 0
9 -109 -10 227 -228 0
9 -109 -10 -227 228 0
9 -109 -10 -227 -228 0
-9 109 -10 229 230 0
-9 109 -10 229 -230 0
-9 109 -10 -229 230 0
-9 109 -10 -229 -230 0
10 110 11 231 232 0
10 110 11 231 -232 0
10 110 11 -231 232 0
10 110 11 -231 -232 0
-10 -110 11 233 234 0
-10 -110 11 233 -234 0
-10 -110 11 -233 234 0
-10 -110 11 -233 -234 0
10 -110 -11 235 236 0
10 -110 -11 235 -236 0
10 -110 -11 -235 236 0
10 -110 -11 -235 -236 0
-10 110 -11 237 238 0
-10 110 -11 237 -238 0
-10 110 -11 -237 238 0
-10 110 -11 -237 -238 0
11 111 12 239 240 0
11 111 12 239 -240 0
11 111 12 -239 240 0
11 111 12 -239 -240 0
-11 -111 12 241 242 0
-11 -111 12 241 -242 0
-11 -111 12 -241 242 0
-11 -111 12 -241 -242 0
11 -111 -12 243 244 0
11 -111 -12 243 -244 0
11 -111 -12 -243 244 0
11 -111 -12 -243 -244 0
-11 111 -12 245 246 0
-11 111 -12 245 -246 0
-11 111 -12 -245 246 0
-11 111 -12 -245 -246 0
12 112 13 247 248 0
12 112 13 247 -248 0
12 112 13 -247 248 0
12 112 13 -247 -248 0
-12 -112 13 249 250 0
-12 -112 13 249 -250 0
-12 -112 13 -249 250 0
-12 -112 13 -249 -250 0
12 -112 -13 251 252 0
12 -112 -13 251 -252 0
12 -112 -13 -251 252 0
12 -112 -13 -251 -252 0
-12 112 -13 253 254 0
-12 112 -13 253 -254 0
-12 112 -13 -253 254 0
-12 112 -13 -253 -254 0
13 113 14 255 256 0
13 113 14 255 -256 0
13 113 14 -255 256 0
13 113 14 -255 -256 0
-13 -113 14 257 258 0
-13 -113 14 257 -258 0
-13 -113 14 -257 258 0
-13 -113 14 -257 -258 0
13 -113 -14 259 260 0
13 -113 -14 259 -260 0
13 -113 -14 -259 260 0
13 -113 -14 -259 -260 0
-13 113 -14 261 262 0
-13 113 -14 261 -262 0
-13 113 -14 -261 262 0
-13 113 -14 -261 -262 0
14 114 15 263 264 0
14 114 15 263 -264 0
14 114 15 -263 264 0
14 114 15 -263 -264 0
-14 -114 15 265 266 0
-14 -114 15 265 -266 0
-14 -114 15 -265 266 0
-14 -114 15 -265 -266 0
14 -114 -15 267 268 0
14 -114 -15 267 -268 0
14 -114 -15 -267 268 0
14 -114 -15 -267 -268 0
-14 114 -15 269 270 0
-14 114 -15 269 -270 0
-14 114 -15 -269 270 0
-14 114 -15 -269 -270 0
15 115 16 271 272 0
15 115 16 271 -272 0
15 115 16 -271 272 0
15 115 16 -271 -272 0
-15 -115 16 273 274 0
-15 -115 16 273 -274 0
-15 -115 16 -273 274 0
-15 -115 16 -273 -274 0
15 -115 -16 275 276 0
15 -115 -16 275 -276 0
15 -115 -16 -275 276 0
15 -115 -16 -275 -276 0
-15 115 -16 277 278 0
-15 115 -16 277 -278 0
-15 115 -16 -277 278 0
-15 115 -16 -277 -278 0
16 116 17 279 280 0
16 116 17 279 -280 0
16 116 17 -279 280 0
16 116 17 -279 -280 0
-16 -116 17 281 282 0
-16 -116 17 281 -282 0
-16 -116 17 -281 282 0
-16 -116 17 -281 -282 0
16 -116 -17 283 284 0
16 -116 -17 283 -284 0
16 -116 -17 -283 284 0
16 -116 -17 -283 -284 0
-16 116 -17 285 286 0
-16 116 -17 285 -286 0
-16 116 -17 -285 286 0
-16 116 -17 -285 -286 0
17 117 18 287 288 0
17 117 18 287 -288 0
17 117 18 -287 288 0
17 117 18 -287 -288 0
-17 -117 18 289 290 0
-17 -117 18 289 -290 0
-17 -117 18 -289 290 0
-17 -117 18 -289 -290 0
17 -117 -18 291 292 0
17 -117 -18 291 -292 0
17 -117 -18 -291 292 0
17 -117 -18 -291 -292 0
-17 117 -18 293 294 0
-17 117 -18 293 -294 0
-17 117 -18 -293 294 0
-17 117 -18 -293 -294 0
18 118 19 295 296 0
18 118 19 295 -296 0
18 118 19 -295 296 0
18 118 19 -295 -296 0
-18 -118 19 297 298 0
-18 -118 19 297 -298 0
-18 -118 19 -297 298 0
-18 -118 19 -297 -298 0
18 -118 -19 299 300 0
18 -118 -19 299 -300 0
18 -118 -19 -299 300 0
18 -118 -19 -299 -300 0
-18 118 -19 301 302 0
-18 118 -19 301 -302 0
-18 118 -19 -301 302 0
-18 118 -19 -301 -302 0
19 119 20 303 304 0
19 119 20 303 -304 0
19 119 20 -303 304 0
19 119 20 -303 -304 0
-19 -119 20 305 306 0
-19 -119 20 305 -306 0
-19 -119 20 -305 306 0
-19 -119 20 -305 -306 0
19 -119 -20 307 308 0
19 -119 -20 307 -308 0
19 -119 -20 -307 308 0
19 -119 -20 -307 -308 0
-19 119 -20 309 310 0
-19 119 -20 309 -310 0
-19 119 -20 -309 310 0
-19 119 -20 -309 -310 0
20 120 21 311 312 0
20 120 21 311 -312 0
20 120 21 -311 312 0
20 120 21 -311 -312 0
-20 -120 21 313 314 0
-20 -120 21 313 -314 0
-20 -120 21 -313 314 0
-20 -120 21 -313 -314 0
20 -120 -21 315 316 0
20 -120 -21 315 -316 0
20 -120 -21 -315 316 0
20 -120 -21 -315 -316 0
-20 120 -21 317 318 0
-20 120 -21 317 -318 0
-20 120 -21 -317 318 0
-20 120 -21 -317 -318 0
21 121 22 319 320 0
21 121 22 319 -320 0
21 121 22 -319 320 0
21 121 22 -319 -320 0
-21 -121 22 321 322 0
-21 -121 22 321 -322 0
-21 -121 22 -321 322 0
-21 -121 22 -321 -322 0
21 -121 -22 323 324 0
21 -121 -22 323 -324 0
21 -121 -22 -323 324 0
21 -121 -22 -323 -324 0
-21 121 -22 325 326 0
-21 121 -22 325 -326 0
-21 121 -22 -325 326 0
-21 121 -22 -325 -326 0
22 122 23 327 328 0
22 122 23 327 -328 0
22 122 23 -327 328 0
22 122 23 -327 -328 0
-22 -122 23 329 330 0
-22 -122 23 329 -330 0
-22 -122 23 -329 330 0
-22 -122 23 -329 -330 0
22 -122 -23 331 332 0
22 -122 -23 331 -332 0
22 -122 -23 -331 332 0
22 -122 -23 -331 -332 0
-22 122 -23 333 334 0
-22 122 -23 333 -334 0
-22 122 -23 -333 334 0
-22 122 -23 -333 -334 0
23 123 24 335 336 0
23 123 24 335 -336 0
23 123 24 -335 336 0
23 123 24 -335 -336 0
-23 -123 24 337 338 0
-23 -123 24 337 -338 0
-23 -123 24 -337 338 0
-23 -123 24 -337 -338 0
23 -123 -24 339 340 0
23 -123 -24 339 -340 0
23 -123 -24 -339 340 0
23 -123 -24 -339 -340 0
-23 123 -24 341 342 0
-23 123 -24 341 -342 0
-23 123 -24 -341 342 0
-23 123 -24 -341 -342 0
24 124 25 343 344 0
24 124 25 343 -344 0
24 124 25 -343 344 0
24 124 25 -343 -344 0
-24 -124 25 345 346 0
-24 -124 25 345 -346 0
-24 -124 25 -345 346 0
-24 -124 25 -345 -346 0
24 -124 -25 347 348 0
24 -124 -25 347 -348 0
24 -124 -25 -347 348 0
24 -124 -25 -347 -348 0
-24 124 -25 349 350 0
-24 124 -25 349 -350 0
-24 124 -25 -349 350 0
-24 124 -25 -349 -350 0
25 125 26 351 352 0
25 125 26 351 -352 0
25 125 26 -351 352 0
25 125 26 -351 -352 0
-25 -125 26 353 354 0
-25 -125 26 353 -354 0
-25 -125 26 -353 354 0
-25 -125 26 -353 -354 0
25 -125 -26 355 356 0
25 -125 -26 355 -356 0
25 -125 -26 -355 356 0
25 -125 -26 -355 -356 0
-25 125 -26 357 358 0
-25 125 -26 357 -358 0
-25 125 -26 -357 358 0
-25 125 -26 -357 -358 0
26 126 27 359 360 0
26 126 27 359 -360 0
26 126 27 -359 360 0
26 126 27 -359 -360 0
-26 -126 27 361 362 0
-26 -126 27 361 -362 0
-26 -126 27 -361 362 0
-26 -126 27 -361 -362 0
26 -126 -27 363 364 0
26 -126 -27 363 -364 0
26 -126 -27 -363 364 0
26 -126 -27 -363 -364 0
-26 126 -27 365 366 0
-26 126 -27 365 -366 0
-26 126 -27 -365 366 0
-26 126 -27 -365 -366 0
27 127 28 367 368 0
27 127 28 367 -368 0
27 127 28 -367 368 0
27 127 28 -367 -368 0
-27 -127 28 369 370 0
-27 -127 28 369 -370 0
-27 -127 28 -369 370 0
-27 -127 28 -369 -370 0
27 -127 -28 371 372 0
27 -127 -28 371 -372 0
27 -127 -28 -371 372 0
27 -127 -28 -371 -372 0
-27 127 -28 373 374 0
-27 127 -28 373 -374 0
-27 127 -28 -373 374 0
-27 127 -28 -373 -374 0
28 128 29 375 376 0
28 128 29 375 -376 0
28 128 29 -375 376 0
28 128 29 -375 -376 0
-28 -128 29 377 378 0
-28 -128 29 377 -378 0
-28 -128 29 -377 378 0
-28 -128 29 -377 -378 0
28 -128 -29 379 380 0
28 -128 -29 379 -380 0
28 -128 -29 -379 380 0
28 -128 -29 -379 -380 0
-28 128 -29 381 382 0
-28 128 -29 381 -382 0
-28 128 -29 -381 382 0
-28 128 -29 -381 -382 0
29 129 30 383 384 0
29 129 30 383 -384 0
29 129 30 -383 384 0
29 129 30 -383 -384 0
-29 -129 30 385 386 0
-29 -129 30 385 -386 0
-29 -129 30 -385 386 0
-29 -129 30 -385 -386 0
29 -129 -30 387 388 0
29 -129 -30 387 -388 0
29 -129 -30 -387 388 0
29 -129 -30 -387 -388 0
-29 129 -30 389 390 0
-29 129 -30 389 -390 0
-29 129 -30 -389 390 0
-29 129 -30 -389 -390 0
30 130 31 391 392 0
30 130 31 391 -392 0
30 130 31 -391 392 0
30 130 31 -391 -392 0
-30 -130 31 393 394 0
-30 -130 31 393 -394 0
-30 -130 31 -393 394 0
-30 -130 31 -393 -394 0
30 -130 -31 395 396 0
30 -130 -31 395 -396 0
30 -130 -31 -395 396 0
30 -130 -31 -395 -396 0
-30 130 -31 397 398 0
-30 130 -31 397 -398 0
-30 130 -31 -397 398 0
-30 130 -31 -397 -398 0
31 131 32 399 400 0
31 131 32 399 -400 0
31 131 32 -399 400 0
31 131 32 -399 -400 0
-31 -131 32 401 402 0
-31 -131 32 401 -402 0
-31 -131 32 -401 402 0
-31 -131 32 -401 -402 0
31 -131 -32 403 404 0
31 -131 -32 403 -404 0
31 -131 -32 -403 404 0
31 -131 -32 -403 -404 0
-31 131 -32 405 406 0
-31 131 -32 405 -406 0
-31 131 -32 -405 406 0
-31 131 -32 -405 -406 0
32 132 33 407 408 0
32 132 33 407 -408 0
32 132 33 -407 408 0
32 132 33 -407 -408 0
-32 -132 33 409 410 0
-32 -132 33 409 -410 0
-32 -132 33 -409 410 0
-32 -132 33 -409 -410 0
32 -132 -33 411 412 0
32 -132 -33 411 -412 0
32 -132 -33 -411 412 0
32 -132 -33 -411 -412 0
-32 132 -33 413 414 0
-32 132 -33 413 -414 0
-32 132 -33 -413 414 0
-32 132 -33 -413 -414 0
33 133 34 415 416 0
33 133 34 415 -416 0
33 133 34 -415 416 0
33 133 34 -415 -416 0
-33 -133 34 417 418 0
-33 -133 34 417 -418 0
-33 -133 34 -417 418 0
-33 -133 34 -417 -418 0
33 -133 -34 419 420 0
33 -133 -34 419 -420 0
33 -133 -34 -419 420 0
33 -133 -34 -419 -420 0
-33 133 -34 421 422 0
-33 133 -34 421 -422 0
-33 133 -34 -421 422 0
-33 133 -34 -421 -422 0
34 134 35 423 424 0
34 134 35 423 -424 0
34 134 35 -423 424 0
34 134 35 -423 -424 0
-34 -134 35 425 426 0
-34 -134 35 425 -426 0
-34 -134 35 -425 426 0
-34 -134 35 -425 -426 0
34 -134 -35 427 428 0
34 -134 -35 427 -428 0
34 -134 -35 -427 428 0
34 -134 -35 -427 -428 0
-34 134 -35 429 430 0
-34 134 -35 429 -430 0
-34 134 -35 -429 430 0
-34 134 -35 -429 -430 0
35 135 36 431 432 0
35 135 36 431 -432 0
35 135 36 -431 432 0
35 135 36 -431 -432 0
-35 -135 36 433 434 0
-35 -135 36 433 -434 0
-35 -135 36 -433 434 0
-35 -135 36 -433 -434 0
35 -135 -36 435 436 0
35 -135 -36 435 -436 0
35 -135 -36 -435 436 0
35 -135 -36 -435 -436 0
-35 135 -36 437 438 0
-35 135 -36 437 -438 0
-35 135 -36 -437 438 0
-35 135 -36 -437 -438 0
36 136 37 439 440 0
36 136 37 439 -440 0
36 136 37 -439 440 0
36 136 37 -439 -440 0
-36 -136 37 441 442 0
-36 -136 37 441 -442 0
-36 -136 37 -441 442 0
-36 -136 37 -441 -442 0
36 -136 -37 443 444 0
36 -136 -37 443 -444 0
36 -136 -37 -443 444 0
36 -136 -37 -443 -444 0
-36 136 -37 445 446 0
-36 136 -37 445 -446 0
-36 136 -37 -445 446 0
-36 136 -37 -445 -446 0
37 137 38 447 448 0
37 137 38 447 -448 0
37 137 38 -447 448 0
37 137 38 -447 -448 0
-37 -137 38 449 450 0
-37 -137 38 449 -450 0
-37 -137 38 -449 450 0
-37 -137 38 -449 -450 0
37 -137 -38 451 452 0
37 -137 -38 451 -452 0
37 -137 -38 -451 452 0
37 -137 -38 -451 -452 0
-37 137 -38 453 454 0
-37 137 -38 453 -454 0
-37 137 -38 -453 454 0
-37 137 -38 -453 -454 0
38 138 39 455 456 0
38 138 39 455 -456 0
38 138 39 -455 456 0
38 138 39 -455 -456 0
-38 -138 39 457 458 0
-38 -138 39 457 -458 0
-38 -138 39 -457 458 0
-38 -138 39 -457 -458 0
38 -138 -39 459 460 0
38 -138 -39 459 -460 0
38 -138 -39 -459 460 0
38 -138 -39 -459 -460 0
-38 138 -39 461 462 0
-38 138 -39 461 -462 0
-38 138 -39 -461 462 0
-38 138 -39 -461 -462 0
39 139 40 463 464 0
39 139 40 463 -464 0
39 139 40 -463 464 0
39 139 40 -463 -464 0
-39 -139 40 465 466 0
-39 -139 40 465 -466 0
-39 -139 40 -465 466 0
-39 -139 40 -465 -466 0
39 -139 -40 467 468 0
39 -139 -40 467 -468 0
39 -139 -40 -467 468 0
39 -139 -40 -467 -468 0
-39 139 -40 469 470 0
-39 139 -40 469 -470 0
-39 139 -40 -469 470 0
-39 139 -40 -469 -470 0
40 140 41 471 472 0
40 140 41 471 -472 0
40 140 41 -471 472 0
40 140 41 -471 -472 0
-40 -140 41 473 474 0
-40 -140 41 473 -474 0
-40 -140 41 -473 474 0
-40 -140 41 -473 -474 0
40 -140 -41 475 476 0
40 -140 -41 475 -476 0
40 -140 -41 -475 476 0
40 -140 -41 -475 -476 0
-40 140 -41 477 478 0
-40 140 -41 477 -478 0
-40 140 -41 -477 478 0
-40 140 -41 -477 -478 0
41 141 42 479 480 0
41 141 42 479 -480 0
41 141 42 -479 480 0
41 141 42 -479 -480 0
-41 -141 42 481 482 0
-41 -141 42 481 -482 0
-41 -141 42 -481 482 0
-41 -141 42 -481 -482 0
41 -141 -42 483 484 0
41 -141 -42 483 -484 0
41 -141 -42 -483 484 0
41 -141 -42 -483 -484 0
-41 141 -42 485 486 0
-41 141 -42 485 -486 0
-41 141 -42 -485 486 0
-41 141 -42 -485 -486 0
42 142 43 487 488 0
42 142 43 487 -488 0
42 142 43 -487 488 0
42 142 43 -487 -488 0
-42 -142 43 489 490 0
-42 -142 43 489 -490 0
-42 -142 43 -489 490 0
-42 -142 43 -489 -490 0
42 -142 -43 491 492 0
42 -142 -43 491 -492 0
42 -142 -43 -491 492 0
42 -142 -43 -491 -492 0
-42 142 -43 493 494 0
-42 142 -43 493 -494 0
-42 142 -43 -493 494 0
-42 142 -43 -493 -494 0
43 143 44 495 496 0
43 143 44 495 -496 0
43 143 44 -495 496 0
43 143 44 -495 -496 0
-43 -143 44 497 498 0
-43 -143 44 497 -498 0
-43 -143 44 -497 498 0
-43 -143 44 -497 -498 0
43 -143 -44 499 500 0
43 -143 -44 499 -500 0
43 -143 -44 -499 500 0
43 -143 -44 -499 -500 0
-43 143 -44 501 502 0
-43 143 -44 501 -502 0
-43 143 -44 -501 502 0
-43 143 -44 -501 -502 0
44 144 45 503 504 0
44 144 45 503 -504 0
44 144 45 -503 504 0
44 144 45 -503 -504 0
-44 -144 45 505 506 0
-44 -144 45 505 -506 0
-44 -144 45 -505 506 0
-44 -144 45 -505 -506 0
44 -144 -45 507 508 0
44 -144 -45 507 -508 0
44 -144 -45 -507 508 0
44 -144 -45 -507 -508 0
-44 144 -45 509 510 0
-44 144 -45 509 -510 0
-44 144 -45 -509 510 0
-44 144 -45 -509 -510 0
45 145 46 511 512 0
45 145 46 511 -512 0
45 145 46 -511 512 0
45 145 46 -511 -512 0
-45 -145 46 513 514 0
-45 -145 46 513 -514 0
-45 -145 46 -513 514 0
-45 -145 46 -513 -514 0
45 -145 -46 515 516 0
45 -145 -46 515 -516 0
45 -145 -46 -515 516 0
45 -145 -46 -515 -516 0
-45 145 -46 517 518 0
-45 145 -46 517 -518 0
-45 145 -46 -517 518 0
-45 145 -46 -517 -518 0
46 146 47 519 520 0
46 146 47 519 -520 0
46 146 47 -519 520 0
46 146 47 -519 -520 0
-46 -146 47 521 522 0
-46 -146 47 521 -522 0
-46 -146 47 -521 522 0
-46 -146 47 -521 -522 0
46 -146 -47 523 524 0
46 -146 -47 523 -524 0
46 -146 -47 -523 524 0
46 -146 -47 -523 -524 0
-46 146 -47 525 526 0
-46 146 -47 525 -526 0
-46 146 -47 -525 526 0
-46 146 -47 -525 -526 0
47 147 48 527 528 0
47 147 48 527 -528 0
47 147 48 -527 528 0
47 147 48 -527 -528 0
-47 -147 48 529 530 0
-47 -147 48 529 -530 0
-47 -147 48 -529 530 0
-47 -147 48 -529 -530 0
47 -147 -48 531 532 0
47 -147 -48 531 -532 0
47 -147 -48 -531 532 0
47 -147 -48 -531 -532 0
-47 147 -48 533 534 0
-47 147 -48 533 -534 0
-47 147 -48 -533 534 0
-47 147 -48 -533 -534 0
48 148 49 535 536 0
48 148 49 535 -536 0
48 148 49 -535 536 0
48 148 49 -535 -536 0
-48 -148 49 537 538 0
-48 -148 49 537 -538 0
-48 -148 49 -537 538 0
-48 -148 49 -537 -538 0
48 -148 -49 539 540 0
48 -148 -49 539 -540 0
48 -148 -49 -539 540 0
48 -148 -49 -539 -540 0
-48 148 -49 541 542 0
-48 148 -49 541 -542 0
-48 148 -49 -541 542 0
-48 148 -49 -541 -542 0
49 149 150 543 544 0
49 149 150 543 -544 0
49 149 150 -543 544 0
49 149 150 -543 -544 0
-49 -149 150 545 546 0
-49 -149 150 545 -546 0
-49 -149 150 -545 546 0
-49 -149 150 -545 -546 0
49 -149 -150 547 548 0
49 -149 -150 547 -548 0
49 -149 -150 -547 548 0
49 -149 -150 -547 -548 0
-49 149 -150 549 550 0
-49 149 -150 549 -550 0
-49 149 -150 -549 550 0
-49 149 -150 -549 -550 0
50 149 150 551 552 0
50 149 150 551 -552 0
50 149 150 -551 552 0
50 149 150 -551 -552 0
-50 -149 150 553 554 0
-50 -149 150 553 -554 0
-50 -149 150 -553 554 0
-50 -149 150 -553 -554 0
50 -149 -150 555 556 0
50 -149 -150 555 -556 0
50 -149 -150 -555 556 0
50 -149 -150 -555 -556 0
-50 149 -150 557 558 0
-50 149 -150 557 -558 0
-50 149 -150 -557 558 0
-50 149 -150 -557 -558 0
51 148 50 559 560 0
51 148 50 559 -560 0
51 148 50 -559 560 0
51 148 50 -559 -560 0
-51 -148 50 561 562 0
-51 -148 50 561 -562 0
-51 -148 50 -561 562 0
-51 -148 50 -561 -562 0
51 -148 -50 563 564 0
51 -148 -50 563 -564 0
51 -148 -50 -563 564 0
51 -148 -50 -563 -564 0
-51 148 -50 565 566 0
-51 148 -50 565 -566 0
-51 148 -50 -565 566 0
-51 148 -50 -565 -566 0
52 147 51 567 568 0
52 147 51 567 -568 0
52 147 51 -567 568 0
52 147 51 -567 -568 0
-52 -147 51 569 570 0
-52 -147 51 569 -570 0
-52 -147 51 -569 570 0
-52 -147 51 -569 -570 0
52 -147 -51 571 572 0
52 -147 -51 571 -572 0
52 -147 -51 -571 572 0
52 -147 -51 -571 -572 0
-52 147 -51 573 574 0
-52 147 -51 573 -574 0
-52 147 -51 -573 574 0
-52 147 -51 -573 -574 0
53 146 52 575 576 0
53 146 52 575 -576 0
53 146 52 -575 576 0
53 146 52 -575 -576 0
-53 -146 52 577 578 0
-53 -146 52 577 -578 0
-53 -146 52 -577 578 0
-53 -146 52 -577 -578 0
53 -146 -52 579 580 0
53 -146 -52 579 -580 0
53 -146 -52 -579 580 0
53 -146 -52 -579 -580 0
-53 146 -52 581 582 0
-53 146 -52 581 -582 0
-53 146 -52 -581 582 0
-53 146 -52 -581 -582 0
54 145 53 583 584 0
54 145 53 583 -584 0
54 145 53 -583 584 0
54 145 53 -583 -584 0
-54 -145 53 585 586 0
-54 -145 53 585 -586 0
-54 -145 53 -585 586 0
-54 -145 53 -585 -586 0
54 -145 -53 587 588 0
54 -145 -53 587 -588 0
54 -145 -53 -587 588 0
54 -145 -53 -587 -588 0
-54 145 -53 589 590 0
-54 145 -53 589 -590 0
-54 145 -53 -589 590 0
-54 145 -53 -589 -590 0
55 144 54 591 592 0
55 144 54 591 -592 0
55 144 54 -591 592 0
55 144 54 -591 -592 0
-55 -144 54 593 594 0
-55 -144 54 593 -594 0
-55 -144 54 -593 594 0
-55 -144 54 -593 -594 0
55 -144 -54 595 596 0
55 -144 -54 595 -596 0
55 -144 -54 -595 596 0
55 -144 -54 -595 -596 0
-55 144 -54 597 598 0
-55 144 -54 597 -598 0
-55 144 -54 -597 598 0
-55 144 -54 -597 -598 0
56 143 55 599 600 0
56 143 55 599 -600 0
56 143 55 -599 600 0
56 143 55 -599 -600 0
-56 -143 55 601 602 0
-56 -143 55 601 -602 0
-56 -143 55 -601 602 0
-56 -143 55 -601 -602 0
56 -143 -55 603 604 0
56 -143 -55 603 -604 0
56 -143 -55 -603 604 0
56 -143 -55 -603 -604 0
-56 143 -55 605 606 0
-56 143 -55 605 -606 0
-56 143 -55 -605 606 0
-56 143 -55 -605 -606 0
57 142 56 607 608 0
57 142 56 607 -608 0
57 142 56 -607 608 0
57 142 56 -607 -608 0
-57 -142 56 609 610 0
-57 -142 56 609 -610 0
-57 -142 56 -609 610 0
-57 -142 56 -609 -610 0
57 -142 -56 611 612 0
57 -142 -56 611 -612 0
57 -142 -56 -611 612 0
57 -142 -56 -611 -612 0
-57 142 -56 613 614 0
-57 142 -56 613 -614 0
-57 142 -56 -613 614 0
-57 142 -56 -613 -614 0
58 141 57 615 616 0
58 141 57 615 -616 0
58 141 57 -615 616 0
58 141 57 -615 -616 0
-58 -141 57 617 618 0
-58 -141 57 617 -618 0
-58 -141 57 -617 618 0
-58 -141 57 -617 -618 0
58 -141 -57 619 620 0
58 -141 -57 619 -620 0
58 -141 -57 -619 620 0
58 -141 -57 -619 -620 0
-58 141 -57 621 622 0
-58 141 -57 621 -622 0
-58 141 -57 -621 622 0
-58 141 -57 -621 -622 0
59 140 58 623 624 0
59 140 58 623 -624 0
59 140 58 -623 624 0
59 140 58 -623 -624 0
-59 -140 58 625 626 0
-59 -140 58 625 -626 0
-59 -140 58 -625 626 0
-59 -140 58 -625 -626 0
59 -140 -58 627 628 0
59 -140 -58 627 -628 0
59 -140 -58 -627 628 0
59 -140 -58 -627 -628 0
-59 140 -58 629 630 0
-59 140 -58 629 -630 0
-59 140 -58 -629 630 0
-59 140 -58 -629 -630 0
60 139 59 631 632 0
60 139 59 631 -632 0
60 139 59 -631 632 0
60 139 59 -631 -632 0
-60 -139 59 633 634 0
-60 -139 59 633 -634 0
-60 -139 59 -633 634 0
-60 -139 59 -633 -634 0
60 -139 -59 635 636 0
60 -139 -59 635 -636 0
60 -139 -59 -635 636 0
60 -139 -59 -635 -636 0
-60 139 -59 637 638 0
-60 139 -59 637 -638 0
-60 139 -59 -637 638 0
-60 139 -59 -637 -638 0
61 138 60 639 640 0
61 138 60 639 -640 0
61 138 60 -639 640 0
61 138 60 -639 -640 0
-61 -138 60 641 642 0
-61 -138 60 641 -642 0
-61 -138 60 -641 642 0
-61 -138 60 -641 -642 0
61 -138 -60 643 644 0
61 -138 -60 643 -644 0
61 -138 -60 -643 644 0
61 -138 -60 -643 -644 0
-61 138 -60 645 646 0
-61 138 -60 645 -646 0
-61 138 -60 -645 646 0
-61 138 -60 -645 -646 0
62 137 61 647 648 0
62 137 61 647 -648 0
62 137 61 -647 648 0
62 137 61 -647 -648 0
-62 -137 61 649 650 0
-62 -137 61 649 -650 0
-62 -137 61 -649 650 0
-62 -137 61 -649 -650 0
62 -137 -61 651 652 0
62 -137 -61 651 -652 0
62 -137 -61 -651 652 0
62 -137 -61 -651 -652 0
-62 137 -61 653 654 0
-62 137 -61 653 -654 0
-62 137 -61 -653 654 0
-62 137 -61 -653 -654 0
63 136 62 655 656 0
63 136 62 655 -656 0
63 136 62 -655 656 0
63 136 62 -655 -656 0
-63 -136 62 657 658 0
-63 -136 62 657 -658 0
-63 -136 62 -657 658 0
-63 -136 62 -657 -658 0
63 -136 -62 659 660 0
63 -136 -62 659 -660 0
63 -136 -62 -659 660 0
63 -136 -62 -659 -660 0
-63 136 -62 661 662 0
-63 136 -62 661 -662 0
-63 136 -62 -661 662 0
-63 136 -62 -661 -662 0
64 135 63 663 664 0
64 135 63 663 -664 0
64 135 63 -663 664 0
64 135 63 -663 -664 0
-64 -135 63 665 666 0
-64 -135 63 665 -666 0
-64 -135 63 -665 666 0
-64 -135 63 -665 -666 0
64 -135 -63 667 668 0
64 -135 -63 667 -668 0
64 -135 -63 -667 668 0
64 -135 -63 -667 -668 0
-64 135 -63 669 670 0
-64 135 -63 669 -670 0
-64 135 -63 -669 670 0
-64 135 -63 -669 -670 0
65 134 64 671 672 0
65 134 64 671 -672 0
65 134 64 -671 672 0
65 134 64 -671 -672 0
-65 -134 64 673 674 0
-65 -134 64 673 -674 0
-65 -134 64 -673 674 0
-65 -134 64 -673 -674 0
65 -134 -64 675 676 0
65 -134 -64 675 -676 0
65 -134 -64 -675 676 0
65 -134 -64 -675 -676 0
-65 134 -64 677 678 0
-65 134 -64 677 -678 0
-65 134 -64 -677 678 0
-65 134 -64 -677 -678 0
66 133 65 679 680 0
66 133 65 679 -680 0
66 133 65 -679 680 0
66 133 65 -679 -680 0
-66 -133 65 681 682 0
-66 -133 65 681 -682 0
-66 -133 65 -681 682 0
-66 -133 65 -681 -682 0
66 -133 -65 683 684 0
66 -133 -65 683 -684 0
66 -133 -65 -683 684 0
66 -133 -65 -683 -684 0
-66 133 -65 685 686 0
-66 133 -65 685 -686 0
-66 133 -65 -685 686 0
-66 133 -65 -685 -686 0
67 132 66 687 688 0
67 132 66 687 -688 0
67 132 66 -687 688 0
67 132 66 -687 -688 0
-67 -132 66 689 690 0
-67 -132 66 689 -690 0
-67 -132 66 -689 690 0
-67 -132 66 -689 -690 0
67 -132 -66 691 692 0
67 -132 -66 691 -692 0
67 -132 -66 -691 692 0
67 -132 -66 -691 -692 0
-67 132 -66 693 694 0
-67 132 -66 693 -694 0
-67 132 -66 -693 694 0
-67 132 -66 -693 -694 0
68 131 67 695 696 0
68 131 67 695 -696 0
68 131 67 -695 696 0
68 131 67 -695 -696 0
-68 -131 67 697 698 0
-68 -131 67 697 -698 0
-68 -131 67 -697 698 0
-68 -131 67 -697 -698 0
68 -131 -67 699 700 0
68 -131 -67 699 -700 0
68 -131 -67 -699 700 0
68 -131 -67 -699 -700 0
-68 131 -67 701 702 0
-68 131 -67 701 -702 0
-68 131 -67 -701 702 0
-68 131 -67 -701 -702 0
69 130 68 703 704 0
69 130 68 703 -704 0
69 130 68 -703 704 0
69 130 68 -703 -704 0
-69 -130 68 705 706 0
-69 -130 68 705 -706 0
-69 -130 68 -705 706 0
-69 -130 68 -705 -706 0
69 -130 -68 707 708 0
69 -130 -68 707 -708 0
69 -130 -68 -707 708 0
69 -130 -68 -707 -708 0
-69 130 -68 709 710 0
-69 130 -68 709 -710 0
-69 130 -68 -709 710 0
-69 130 -68 -709 -710 0
70 129 69 711 712 0
70 129 69 711 -712 0
70 129 69 -711 712 0
70 129 69 -711 -712 0
-70 -129 69 713 714 0
-70 -129 69 713 -714 0
-70 -129 69 -713 714 0
-70 -129 69 -713 -714 0
70 -129 -69 715 716 0
70 -129 -69 715 -716 0
70 -129 -69 -715 716 0
70 -129 -69 -715 -716 0
-70 129 -69 717 718 0
-70 129 -69 717 -718 0
-70 129 -69 -717 718 0
-70 129 -69 -717 -718 0
71 128 70 719 720 0
71 128 70 719 -720 0
71 128 70 -719 720 0
71 128 70 -719 -720 0
-71 -128 70 721 722 0
-71 -128 70 721 -722 0
-71 -128 70 -721 722 0
-71 -128 70 -721 -722 0
71 -128 -70 723 724 0
71 -128 -70 723 -724 0
71 -128 -70 -723 724 0
71 -128 -70 -723 -724 0
-71 128 -70 725 726 0
-71 128 -70 725 -726 0
-71 128 -70 -725 726 0
-71 128 -70 -725 -726 0
72 127 71 727 728 0
72 127 71 727 -728 0
72 127 71 -727 728 0
72 127 71 -727 -728 0
-72 -127 71 729 730 0
-72 -127 71 729 -730 0
-72 -127 71 -729 730 0
-72 -127 71 -729 -730 0
72 -127 -71 731 732 0
72 -127 -71 731 -732 0
72 -127 -71 -731 732 0
72 -127 -71 -731 -732 0
-72 127 -71 733 734 0
-72 127 -71 733 -734 0
-72 127 -71 -733 734 0
-72 127 -71 -733 -734 0
73 126 72 735 736 0
73 126 72 735 -736 0
73 126 72 -735 736 0
73 126 72 -735 -736 0
-73 -126 72 737 738 0
-73 -126 72 737 -738 0
-73 -126 72 -737 738 0
-73 -126 72 -737 -738 0
73 -126 -72 739 740 0
73 -126 -72 739 -740 0
73 -126 -72 -739 740 0
73 -126 -72 -739 -740 0
-73 126 -72 741 742 0
-73 126 -72 741 -742 0
-73 126 -72 -741 742 0
-73 126 -72 -741 -742 0
74 125 73 743 744 0
74 125 73 743 -744 0
74 125 73 -743 744 0
74 125 73 -743 -744 0
-74 -125 73 745 746 0
-74 -125 73 745 -746 0
-74 -125 73 -745 746 0
-74 -125 73 -745 -746 0
74 -125 -73 747 748 0
74 -125 -73 747 -748 0
74 -125 -73 -747 748 0
74 -125 -73 -747 -748 0
-74 125 -73 749 750 0
-74 125 -73 749 -750 0
-74 125 -73 -749 750 0
-74 125 -73 -749 -750 0
75 124 74 751 752 0
75 124 74 751 -752 0
75 124 74 -751 752 0
75 124 74 -751 -752 0
-75 -124 74 753 754 0
-75 -124 74 753 -754 0
-75 -124 74 -753 754 0
-75 -124 74 -753 -754 0
75 -124 -74 755 756 0
75 -124 -74 755 -756 0
75 -124 -74 -755 756 0
75 -124 -74 -755 -756 0
-75 124 -74 757 758 0
-75 124 -74 757 -758 0
-75 124 -74 -757 758 0
-75 124 -74 -757 -758 0
76 123 75 759 760 0
76 123 75 759 -760 0
76 123 75 -759 760 0
76 123 75 -759 -760 0
-76 -123 75 761 762 0
-76 -123 75 761 -762 0
-76 -123 75 -761 762 0
-76 -123 75 -761 -762 0
76 -123 -75 763 764 0
76 -123 -75 763 -764 0
76 -123 -75 -763 764 0
76 -123 -75 -763 -764 0
-76 123 -75 765 766 0
-76 123 -75 765 -766 0
-76 123 -75 -765 766 0
-76 123 -75 -765 -766 0
77 122 76 767 768 0
77 122 76 767 -768 0
77 122 76 -767 768 0
77 122 76 -767 -768 0
-77 -122 76 769 770 0
-77 -122 76 769 -770 0
-77 -122 76 -769 770 0
-77 -122 76 -769 -770 0
77 -122 -76 771 772 0
77 -122 -76 771 -772 0
77 -122 -76 -771 772 0
77 -122 -76 -771 -772 0
-77 122 -76 773 774 0
-77 122 -76 773 -774 0
-77 122 -76 -773 774 0
-77 122 -76 -773 -774 0
78 121 77 775 776 0
78 121 77 775 -776 0
78 121 77 -775 776 0
78 121 77 -775 -776 0
-78 -121 77 777 778 0
-78 -121 77 777 -778 0
-78 -121 77 -777 778 0
-78 -121 77 -777 -778 0
78 -121 -77 779 780 0
78 -121 -77 779 -780 0
78 -121 -77 -779 780 0
78 -121 -77 -779 -780 0
-78 121 -77 781 782 0
-78 121 -77 781 -782 0
-78 121 -77 -781 782 0
-78 121 -77 -781 -782 0
79 120 78 783 784 0
79 120 78 783 -784 0
79 120 78 -783 784 0
79 120 78 -783 -784 0
-79 -120 78 785 786 0
-79 -120 78 785 -786 0
-79 -120 78 -785 786 0
-79 -120 78 -785 -786 0
79 -120 -78 787 788 0
79 -120 -78 787 -788 0
79 -120 -78 -787 788 0
79 -120 -78 -787 -788 0
-79 120 -78 789 790 0
-79 120 -78 789 -790 0
-79 120 -78 -789 790 0
-79 120 -78 -789 -790 0
80 119 79 791 792 0
80 119 79 791 -792 0
80 119 79 -791 792 0
80 119 79 -791 -792 0
-80 -119 79 793 794 0
-80 -119 79 793 -794 0
-80 -119 79 -793 794 0
-80 -119 79 -793 -794 0
80 -119 -79 795 796 0
80 -119 -79 795 -796 0
80 -119 -79 -795 796 0
80 -119 -79 -795 -796 0
-80 119 -79 797 798 0
-80 119 -79 797 -798 0
-80 119 -79 -797 798 0
-80 119 -79 -797 -798 0
81 118 80 799 800 0
81 118 80 799 -800 0
81 118 80 -799 800 0
81 118 80 -799 -800 0
-81 -118 80 801 802 0
-81 -118 80 801 -802 0
-81 -118 80 -801 802 0
-81 -118 80 -801 -802 0
81 -118 -80 803 804 0
81 -118 -80 803 -804 0
81 -118 -80 -803 804 0
81 -118 -80 -803 -804 0
-81 118 -80 805 806 0
-81 118 -80 805 -806 0
-81 118 -80 -805 806 0
-81 118 -80 -805 -806 0
82 117 81 807 808 0
82 117 81 807 -808 0
82 117 81 -807 808 0
82 117 81 -807 -808 0
-82 -117 81 809 810 0
-82 -117 81 809 -810 0
-82 -117 81 -809 810 0
-82 -117 81 -809 -810 0
82 -117 -81 811 812 0
82 -117 -81 811 -812 0
82 -117 -81 -811 812 0
82 -117 -81 -811 -812 0
-82 117 -81 813 814 0
-82 117 -81 813 -814 0
-82 117 -81 -813 814 0
-82 117 -81 -813 -814 0
83 116 82 815 816 0
83 116 82 815 -816 0
83 116 82 -815 816 0
83 116 82 -815 -816 0
-83 -116 82 817 818 0
-83 -116 82 817 -818 0
-83 -116 82 -817 818 0
-83 -116 82 -817 -818 0
83 -116 -82 819 820 0
83 -116 -82 819 -820 0
83 -116 -82 -819 820 0
83 -116 -82 -819 -820 0
-83 116 -82 821 822 0
-83 116 -82 821 -822 0
-83 116 -82 -821 822 0
-83 116 -82 -821 -822 0
84 115 83 823 824 0
84 115 83 823 -824 0
84 115 83 -823 824 0
84 115 83 -823 -824 0
-84 -115 83 825 826 0
-84 -115 83 825 -826 0
-84 -115 83 -825 826 0
-84 -115 83 -825 -826 0
84 -115 -83 827 828 0
84 -115 -83 827 -828 0
84 -115 -83 -827 828 0
84 -115 -83 -827 -828 0
-84 115 -83 829 830 0
-84 115 -83 829 -830 0
-84 115 -83 -829 830 0
-84 115 -83 -829 -830 0
85 114 84 831 832 0
85 114 84 831 -832 0
85 114 84 -831 832 0
85 114 84 -831 -832 0
-85 -114 84 833 834 0
-85 -114 84 833 -834 0
-85 -114 84 -833 834 0
-85 -114 84 -833 -834 0
85 -114 -84 835 836 0
85 -114 -84 835 -836 0
85 -114 -84 -835 836 0
85 -114 -84 -835 -836 0
-85 114 -84 837 838 0
-85 114 -84 837 -838 0
-85 114 -84 -837 838 0
-85 114 -84 -837 -838 0
86 113 85 839 840 0
86 113 85 839 -840 0
86 113 85 -839 840 0
86 113 85 -839 -840 0
-86 -113 85 841 842 0
-86 -113 85 841 -842 0
-86 -113 85 -841 842 0
-86 -113 85 -841 -842 0
86 -113 -85 843 844 0
86 -113 -85 843 -844 0
86 -113 -85 -843 844 0
86 -113 -85 -843 -844 0
-86 113 -85 845 846 0
-86 113 -85 845 -846 0
-86 113 -85 -845 846 0
-86 113 -85 -845 -846 0
87 112 86 847 848 0
87 112 86 847 -848 0
87 112 86 -847 848 0
87 112 86 -847 -848 0
-87 -112 86 849 850 0
-87 -112 86 849 -850 0
-87 -112 86 -849 850 0
-87 -112 86 -849 -850 0
87 -112 -86 851 852 0
87 -112 -86 851 -852 0
87 -112 -86 -851 852 0
87 -112 -86 -851 -852 0
-87 112 -86 853 854 0
-87 112 -86 853 -854 0
-87 112 -86 -853 854 0
-87 112 -86 -853 -854 0
88 111 87 855 856 0
88 111 87 855 -856 0
88 111 87 -855 856 0
88 111 87 -855 -856 0
-88 -111 87 857 858 0
-88 -111 87 857 -858 0
-88 -111 87 -857 858 0
-88 -111 87 -857 -858 0
88 -111 -87 859 860 0
88 -111 -87 859 -860 0
88 -111 -87 -859 860 0
88 -111 -87 -859 -860 0
-88 111 -87 861 862 0
-88 111 -87 861 -862 0
-88 111 -87 -861 862 0
-88 111 -87 -861 -862 0
89 110 88 863 864 0
89 110 88 863 -864 0
89 110 88 -863 864 0
89 110 88 -863 -864 0
-89 -110 88 865 866 0
-89 -110 88 865 -866 0
-89 -110 88 -865 866 0
-89 -110 88 -865 -866 0
89 -110 -88 867 868 0
89 -110 -88 867 -868 0
89 -110 -88 -867 868 0
89 -110 -88 -867 -868 0
-89 110 -88 869 870 0
-89 110 -88 869 -870 0
-89 110 -88 -869 870 0
-89 110 -88 -869 -870 0
90 109 89 871 872 0
90 109 89 871 -872 0
90 109 89 -871 872 0
90 109 89 -871 -872 0
-90 -109 89 873 874 0
-90 -109 89 873 -874 0
-90 -109 89 -873 874 0
-90 -109 89 -873 -874 0
90 -109 -89 875 876 0
90 -109 -89 875 -876 0
90 -109 -89 -875 876 0
90 -109 -89 -875 -876 0
-90 109 -89 877 878 0
-90 109 -89 877 -878 0
-90 109 -89 -877 878 0
-90 109 -89 -877 -878 0
91 108 90 879 880 0
91 108 90 879 -880 0
91 108 90 -879 880 0
91 108 90 -879 -880 0
-91 -108 90 881 882 0
-91 -108 90 881 -882 0
-91 -108 90 -881 882 0
-91 -108 90 -881 -882 0
91 -108 -90 883 884 0
91 -108 -90 883 -884 0
91 -108 -90 -883 884 0
91 -108 -90 -883 -884 0
-91 108 -90 885 886 0
-91 108 -90 885 -886 0
-91 108 -90 -885 886 0
-91 108 -90 -885 -886 0
92 107 91 887 888 0
92 107 91 887 -888 0
92 107 91 -887 888 0
92 107 91 -887 -888 0
-92 -107 91 889 890 0
-92 -107 91 889 -890 0
-92 -107 91 -889 890 0
-92 -107 91 -889 -890 0
92 -107 -91 891 892 0
92 -107 -91 891 -892 0
92 -107 -91 -891 892 0
92 -107 -91 -891 -892 0
-92 107 -91 893 894 0
-92 107 -91 893 -894 0
-92 107 -91 -893 894 0
-92 107 -91 -893 -894 0
93 106 92 895 896 0
93 106 92 895 -896 0
93 106 92 -895 896 0
93 106 92 -895 -896 0
-93 -106 92 897 898 0
-93 -106 92 897 -898 0
-93 -106 92 -897 898 0
-93 -106 92 -897 -898 0
93 -106 -92 899 900 0
93 -106 -92 899 -900 0
93 -106 -92 -899 900 0
93 -106 -92 -899 -900 0
-93 106 -92 901 902 0
-93 106 -92 901 -902 0
-93 106 -92 -901 902 0
-93 106 -92 -901 -902 0
94 105 93 903 904 0
94 105 93 903 -904 0
94 105 93 -903 904 0
94 105 93 -903 -904 0
-94 -105 93 905 906 0
-94 -105 93 905 -906 0
-94 -105 93 -905 906 0
-94 -105 93 -905 -906 0
94 -105 -93 907 908 0
94 -105 -93 907 -908 0
94 -105 -93 -907 908 0
94 -105 -93 -907 -908 0
-94 105 -93 909 910 0
-94 105 -93 909 -910 0
-94 105 -93 -909 910 0
-94 105 -93 -909 -910 0
95 104 94 911 912 0
95 104 94 911 -912 0
95 104 94 -911 912 0
95 104 94 -911 -912 0
-95 -104 94 913 914 0
-95 -104 94 913 -914 0
-95 -104 94 -913 914 0
-95 -104 94 -913 -914 0
95 -104 -94 915 916 0
95 -104 -94 915 -916 0
95 -104 -94 -915 916 0
95 -104 -94 -915 -916 0
-95 104 -94 917 918 0
-95 104 -94 917 -918 0
-95 104 -94 -917 918 0
-95 104 -94 -917 -918 0
96 103 95 919 920 0
96 103 95 919 -920 0
96 103 95 -919 920 0
96 103 95 -919 -920 0
-96 -103 95 921 922 0
-96 -103 95 921 -922 0
-96 -103 95 -921 922 0
-96 -103 95 -921 -922 0
96 -103 -95 923 924 0
96 -103 -95 923 -924 0
96 -103 -95 -923 924 0
96 -103 -95 -923 -924 0
-96 103 -95 925 926 0
-96 103 -95 925 -926 0
-96 103 -95 -925 926 0
-96 103 -95 -925 -926 0
97 102 96 927 928 0
97 102 96 927 -928 0
97 102 96 -927 928 0
97 102 96 -927 -928 0
-97 -102 96 929 930 0
-97 -102 96 929 -930 0
-97 -102 96 -929 930 0
-97 -102 96 -929 -930 0
97 -102 -96 931 932 0
97 -102 -96 931 -932 0
97 -102 -96 -931 932 0
97 -102 -96 -931 -932 0
-97 102 -96 933 934 0
-97 102 -96 933 -934 0
-97 102 -96 -933 934 0
-97 102 -96 -933 -934 0
98 101 97 935 936 0
98 101 97 935 -936 0
98 101 97 -935 936 0
98 101 97 -935 -936 0
-98 -101 97 937 938 0
-98 -101 97 937 -938 0
-98 -101 97 -937 938 0
-98 -101 97 -937 -938 0
98 -101 -97 939 940 0
98 -101 -97 939 -940 0
98 -101 -97 -939 940 0
98 -101 -97 -939 -940 0
-98 101 -97 941 942 0
-98 101 -97 941 -942 0
-98 101 -97 -941 942 0
-98 101 -97 -941 -942 0
99 100 -98 943 944 0
99 100 -98 943 -944 0
99 100 -98 -943 944 0
99 100 -98 -943 -944 0
-99 -100 -98 945 946 0
-99 -100 -98 945 -946 0
-99 -100 -98 -945 946 0
-99 -100 -98 -945 -946 0
99 -100 98 947 948 0
99 -100 98 947 -948 0
99 -100 98 -947 948 0
99 -100 98 -947 -948 0
-99 100 98 949 950 0
-99 100 98 949 -950 0
-99 100 98 -949 950 0
-99 100 98 -949 -950 0
